(set-logic NRA)
(declare-fun b () Real)
(declare-fun a () Real)
(assert (exists ((x Real)) (exists ((y Real)) (and (= (* (+ 11 (* b 27)) (+ 1 b) (+ (- 3) b) (+ (- 3) b) (+ 47 (* b 27)) (+ 47 (* b 27))) 0) (=  (+ (+ (- 6499394527) (* b (+ (- 15455988335) (* b (+ (- 7388075286) (* b (+ 5113254114 (* b (+ 1274021541 (* b (- 537286851))))))))))) (* a 1733427200)) 0) (=  (+ (+ 42073006043 (* b (+ 82286604715 (* b (+ (- 2571316626) (* b (+ (- 17174846826) (* b (+ (- 897078969) (* b 1227687759)))))))))) (* x 27734835200)) 0) (=  (+ (+ 9745294303 (* b (+ 77175816815 (* b (+ 38243071254 (* b (+ (- 25287557346) (* b (+ (- 7132522149) (* b 2835001539)))))))))) (* y 13867417600)) 0) (<= (* (- 1) (+ (- 1) (* a 4))) 0) (<=  (+ (- 7) (* a 4)) 0) (<= (* (- 1) (+ 3 (* b 4))) 0) (<=  (+ (- 3) (* b 4)) 0) (<= (* (- 1) (+ 1 x)) 0) (<=  x 0) (<= (* (- 1) y) 0) (<=  (+ (- 1) y) 0)))))
(apply qe)
